c --- [ banner ] -------------------------------------------------------------
c 
c CaDiCaL Radically Simplified CDCL SAT Solver
c Copyright (c) 2016-2021 A. Biere, M. Fleury, N. Froleyks
c 
c Version 1.5.2 ca9bff05c11bde5eae4912f9932871d1527e61d8
c g++ (GCC) 9.3.0 -Wall -Wextra -O3 -DNDEBUG
c Sun May 1 02:23:23 EDT 2022 Linux gra-login1 3.10.0-1160.59.1.el7.x86_64 x86_64
c 
c --- [ limit ] --------------------------------------------------------------
c 
c setting conflict limit to 200000 conflicts (due to '200000')
c 
c --- [ parsing input ] ------------------------------------------------------
c 
c reading DIMACS file from '26.cubes512.adj'
c opening file to read '26.cubes512.adj'
c found 'p cnf 5320 924211' header
c parsed 924211 clauses in 8.85 seconds process time
c closing file '26.cubes512.adj'
c after reading 686668121 bytes 654.9 MB
c 
c --- [ options ] ------------------------------------------------------------
c 
c all options are set to their default value
c 
c --- [ solving ] ------------------------------------------------------------
c 
c time measured in process time since initialization
c 
c  seconds   reductions  redundant  irredundant
c          MB    restarts       trail      variables
c           level   conflicts       glue        remaining
c 
c *  8.86 689  0 0   0    0    0  0% 0 923580 4125 78%
c {  9.36 718  0 0   0    0    0  0% 0 923580 4125 78%
c i  9.60 722 59 0   0    6    4 35% 3 923580 4106 77%
c i  9.61 722 50 0   0    8    5 34% 2 923580 4087 77%
c i  9.74 725 46 0   0   13    8 36% 3 923580 4045 76%
c i 11.24 763 87 0   9   60   47 45% 25 923580 4000 75%
c i 11.49 763 75 0  14   85   70 46% 23 923580 3999 75%
c i 11.49 763 74 0  14   86   70 46% 23 923580 3992 75%
c i 11.54 763 66 0  14  101   84 48% 22 923580 3991 75%
c i 11.56 763 61 0  14  113   95 49% 21 923580 3985 75%
c i 11.58 763 61 0  14  114   95 49% 21 923580 3984 75%
c i 11.63 764 63 0  14  129  107 49% 21 923580 3983 75%
c i 11.64 764 62 0  14  137  113 48% 21 923580 3982 75%
c i 11.80 764 74 0  17  178  149 49% 25 923580 3980 75%
c i 11.81 764 74 0  18  179  149 49% 25 923580 3979 75%
c i 11.81 764 74 0  18  182  151 49% 25 923580 3978 75%
c i 11.82 764 74 0  19  183  151 49% 25 923580 3965 75%
c i 12.07 766 80 0  22  201  168 48% 27 923580 3964 75%
c i 12.83 770 90 0  39  278  221 47% 36 923580 3962 74%
c - 15.49 754 92 1  44  301  239 47% 36 247416 3962 74%
c 
c  seconds   reductions  redundant   irredundant
c          MB    restarts       trail       variables
c           level   conflicts       glue         remaining
c 
c i 15.80 690 93 1  45  354  288 48% 34 247416 3961 74%
c i 15.80 690 92 1  45  356  289 48% 34 247416 3960 74%
c i 15.86 690 80 1  45  461  371 50% 32 247416 3959 74%
c i 16.05 690 63 1  45  701  569 52% 28 247416 3958 74%
c i 16.25 690 63 1  46  805  661 52% 28 247416 3957 74%
c i 16.27 690 63 1  46  831  684 52% 28 247416 3956 74%
c i 16.45 690 62 1  54  894  730 52% 28 247416 3955 74%
c } 16.63 690 59 1  54 1000  812 52% 28 247416 3955 74%
c [ 16.63 690  0 1  54 1000  812  0% 0 247416 3955 74%
c O 16.63 690 66 1  54 1005  816 44% 9 247416 3955 74%
c i 16.67 690 12 1  54 1043  822 33% 5 247416 3941 74%
c - 17.55 795 21 2  54 1137  789 49% 13 247062 3941 74%
c i 17.75 795 23 2  54 1309  934 53% 15 247062 3940 74%
c i 17.78 795 23 2  54 1382  997 54% 15 247062 3939 74%
c i 17.81 795 23 2  54 1461 1061 54% 15 247062 3938 74%
c i 17.87 795 23 2  54 1643 1228 55% 15 247062 3937 74%
c i 18.06 795 22 2  55 2128 1627 56% 16 247062 3936 74%
c i 18.13 795 22 2  55 2289 1765 56% 16 247062 3935 74%
c - 18.43 794 22 3  55 2390 1401 56% 16 247044 3935 74%
c ] 18.90 793 21 3  55 3001 1874 41% 16 247044 3935 74%
c 
c  seconds   reductions  redundant   irredundant
c          MB    restarts       trail       variables
c           level   conflicts       glue         remaining
c 
c { 18.90 793 59 3  55 3001 1874 71% 28 247044 3935 74%
c F 18.91 793 58 3  55 3006 1878 70% 28 247044 3935 74%
c i 19.15 793 57 3  55 3032 1898 69% 27 247044 3934 74%
c i 19.15 793 57 3  55 3036 1901 69% 27 247044 3933 74%
c i 19.15 793 57 3  55 3037 1901 69% 27 247044 3932 74%
c i 19.16 793 57 3  55 3056 1919 68% 27 247044 3931 74%
c i 19.27 793 51 3  55 3264 2046 63% 24 247044 3930 74%
c i 19.32 793 49 3  58 3434 2185 61% 24 247044 3929 74%
c i 19.41 793 48 3  66 3495 2234 60% 24 247044 3928 74%
c i 19.66 793 49 3  74 3547 2278 59% 24 247044 3927 74%
c i 19.78 793 49 3  77 3557 2287 59% 25 247044 3811 72%
c i 20.17 793 51 3  93 3613 2336 58% 25 247044 3799 71%
c i 20.21 793 51 3  95 3622 2344 57% 25 247044 3798 71%
c i 20.25 793 51 3  98 3634 2352 57% 25 247044 3797 71%
c i 21.88 793 55 3 155 4033 2657 53% 26 247044 3796 71%
c - 22.45 758 55 4 162 4062 1871 52% 26 245750 3796 71%
c i 23.21 758 57 4 184 4147 1941 51% 27 245750 3795 71%
c 2 24.73 758 53 4 211 5000 4643 47% 26 245678 3785 71%
c p 28.91 758 53 4 211 5000 8904 47% 26 245678 3729 70%
c d 29.28 758 53 4 211 5000 8851 47% 26 233173 3725 70%
c 
c  seconds   reductions  redundant   irredundant
c          MB    restarts       trail       variables
c           level   conflicts       glue         remaining
c 
c # 29.93 758 45 4 211 6008 9536 45% 23 233173 3725 70%
c - 30.40 749 45 5 211 6151 2625 45% 23 233173 3725 70%
c } 32.40 749 45 5 299 7003 3308 43% 24 233173 3725 70%
c [ 32.40 749 21 5 299 7003 3308 41% 16 233173 3725 70%
c - 33.49 749 33 6 300 8615 3211 41% 25 233173 3725 70%
c I 34.19 749 35 6 301 10009 4134 41% 28 233173 3725 70%
c - 34.85 749 39 7 303 11488 3717 41% 31 233173 3725 70%
c - 35.97 749 41 8 304 14770 4283 40% 32 233173 3725 70%
c 2 36.12 749 41 8 304 15002 6524 40% 32 233170 3725 70%
c p 37.49 749 41 8 304 15002 10771 40% 32 233170 3725 70%
c ] 37.56 749 41 8 304 15003 10772 40% 32 233170 3725 70%
c { 37.56 749 45 8 304 15003 10772 43% 24 233170 3725 70%
c B 37.67 749 45 8 306 15010 10779 43% 24 233170 3725 70%
c s 39.60 749 45 8 398 15614 11072 42% 24 231552 3725 70%
c v 44.39 749 45 8 398 15614 11072 42% 24 231486 3725 70%
c t 44.49 749 45 8 398 15614 11060 42% 24 231412 3725 70%
c e 45.24 750 45 8 398 15614 6128 42% 24 225957 920 17%
c s 45.35 750 45 8 398 15614 6128 42% 24 225246 920 17%
c - 48.37 666 39 9 456 18463 4895 64% 22 225246 920 17%
c W 52.16 666 37 9 631 21013 6745 63% 22 225246 920 17%
c 
c  seconds   reductions    redundant   irredundant
c          MB     restarts        trail       variables
c           level     conflicts       glue        remaining
c 
c - 52.78 750 35 10 668 22520 5381 64% 22 225246 920 17%
c - 54.23 666 30 11 668 26985 5627 64% 20 225246 920 17%
c F 54.49 666 29 11 668 28015 6228 65% 19 225246 920 17%
c p 57.31 666 29 11 728 30003 10024 65% 19 225246 920 17%
c } 57.83 666 28 11 738 31004 10667 65% 19 225246 920 17%
c [ 57.83 666 41 11 738 31004 10667 172% 32 225246 920 17%
c - 58.11 750 39 12 738 31854 6367 163% 31 225246 920 17%
c B 59.16 750 34 12 741 36018 8692 132% 27 225246 920 17%
c - 59.69 666 34 13 741 37129 6409 127% 27 225246 920 17%
c - 61.89 750 36 14 745 42811 7364 109% 29 225246 920 17%
c W 63.33 750 36 14 745 45019 8933 104% 29 225246 920 17%
c - 64.67 751 34 15 746 48899 7997 98% 28 225246 920 17%
c p 65.64 751 34 15 746 50004 11230 96% 28 225246 920 17%
c O 67.04 751 33 15 747 55023 14708 91% 28 225246 920 17%
c - 67.27 751 33 16 747 55398 8792 91% 28 225246 920 17%
c ] 68.21 751 32 16 752 60754 11951 86% 27 225246 920 17%
c 1 68.21 751 32 16 752 60754 11951 86% 27 225246 920 17%
c 
c --- [ writing output ] -----------------------------------------------------
c 
c writing simplified CNF to DIMACS file 'simp/26.cubes512.adj.simp1'
c * 68.21 751 32 16 752 60754 11951 86% 27 225246 920 17%
c opening file to write 'simp/26.cubes512.adj.simp1'
c writing 'p cnf 5320 225246' header
c closing file 'simp/26.cubes512.adj.simp1'
c after writing 94302319 bytes 89.9 MB
c wrote 225246 clauses in 0.68 seconds process time
c 
c --- [ writing extension ] --------------------------------------------------
c 
c writing extension stack to 'simp/26.cubes512.adj.ext1'
c opening file to write 'simp/26.cubes512.adj.ext1'
c closing file 'simp/26.cubes512.adj.ext1'
c after writing 172418 bytes 0.2 MB
c wrote 7650 witnesses in 0.00 seconds process time
c 
c --- [ result ] -------------------------------------------------------------
c 
s SATISFIABLE
c 
c --- [ run-time profiling ] -------------------------------------------------
c 
c process time taken by individual solving procedures
c (percentage relative to process time for solving)
c 
c        44.68   75.29% search
c        28.46   47.95% unstable
c        14.98   25.23% stable
c        14.67   24.71% simplify
c         8.85   14.92% parse
c         7.23   12.18% probe
c         4.87    8.20% vivify
c         1.38    2.33% elim
c         0.75    1.26% walk
c         0.50    0.84% lucky
c         0.21    0.35% subsume
c         0.14    0.24% ternary
c   =================================
c        59.35   86.16% solve
c 
c last line shows process time for solving
c (percentage relative to total process time)
c 
c --- [ statistics ] ---------------------------------------------------------
c 
c chronological:             10299        16.95 %  of conflicts
c conflicts:                 60754      1023.65    per second
c decisions:                121765      2051.63    per second
c eliminated:                 2805        52.73 %  of all variables
c fixed:                      1581        29.72 %  of all variables
c learned:                   59484        97.91 %  per conflict
c learned_lits:           11137084       100.00 %  learned literals
c minimized:                     0         0.00 %  learned literals
c shrunken:                6561272        58.91 %  learned literals
c minishrunken:             932292         8.37 %  learned literals
c propagations:            5840651         0.10 M  per second
c reduced:                   29976        49.34 %  per conflict
c rephased:                     10      6075.40    interval
c restarts:                    752        80.79    interval
c stabilizing:                   3        65.43 %  of conflicts
c substituted:                  14         0.26 %  of all variables
c subsumed:                  20321         0.96 %  of all clauses
c strengthened:               4024         0.19 %  of all clauses
c ternary:                    5067         0.52 %  of resolved
c vivified:                     69         0.00 %  of all clauses
c walked:                        2     30377.00    interval
c weakened:                   6069         3.10    average size
c 
c seconds are measured in process time for solving
c 
c --- [ resources ] ----------------------------------------------------------
c 
c total process time since initialization:        68.89    seconds
c total real time since initialization:           68.94    seconds
c maximum resident set size of process:          898.09    MB
c 
c --- [ shutting down ] ------------------------------------------------------
c 
c exit 10
WARNING! DIMACS header mismatch: wrong number of variables.
============================[ Problem Statistics ]=============================
|                                                                             |
|  Number of variables:          3409                                         |
|  Number of clauses:          225248                                         |
|  Parse time:                   1.26 s                                       |
|  Simplification time:          0.02 s                                       |
|                                                                             |
============================[ Search Statistics ]====================================================
| Conflicts |          ORIGINAL         |          LEARNT          | Num Sols |      SUBGRAPHS      |
|           |    Vars  Clauses Literals |    Limit  Clauses Lit/Cl |          | Canonical Noncanon. |
=====================================================================================================
|       142 |    3327   225290 20802550 |     2000      142     73 |        0 |        39        42 |
|       292 |    3327   225290 20802550 |     2000      292     81 |        0 |        41        42 |
|       518 |    3327   225291 20802564 |     2000      518     69 |        0 |        53        43 |
|      1089 |    3327   225525 20807070 |     2000     1089     57 |        0 |       126       277 |
|      1616 |    3327   225546 20807500 |     2000     1616     65 |        0 |       143       298 |
|      2593 |    3327   225764 20812057 |     3602     1595     41 |        0 |       194       516 |
|      3741 |    3327   225773 20812318 |     3602     2743     63 |        0 |       204       525 |
|      5512 |    3327   225836 20813423 |     5003     2715     55 |        0 |       238       588 |
|      8315 |    3327   226077 20817481 |     6308     3023     37 |        0 |       333       829 |
|     13428 |    3327   227346 20842948 |     7556     4984     45 |        0 |      1002      2098 |
|     19267 |    3327   227419 20845054 |     8780     7047     61 |        0 |      1065      2171 |
|     28296 |    3327   227799 20851588 |    11201     6697     41 |        0 |      1200      2551 |
|     41977 |    3327   228506 20865304 |    13606     8583     36 |        0 |      1331      3258 |
|     62083 |    3327   229151 20875524 |    16005    14488     56 |        0 |      1544      3903 |
|     92115 |    3327   229991 20891123 |    19615    18730     63 |        0 |      1799      4743 |
|    137006 |    3327   231093 20909739 |    24411    20817     54 |        0 |      2168      5845 |
|    207243 |    3327   235646 20980636 |    30415    24058     53 |        0 |      3078     10398 |
|    311610 |    3327   241487 21058218 |    37615    28225     52 |        0 |      3757     16239 |
|    460367 |    3327   242455 21072835 |    46010    32777     50 |        0 |      4192     17207 |
|    696636 |    3327   257041 21273348 |    56811    40447     49 |        0 |      5834     31793 |
|   1047514 |    3327   275394 21527721 |    70024    45938     47 |        0 |      8596     50146 |
|   1569659 |    3327   298751 21831716 |    85614    66273     56 |        0 |     11973     73503 |
|   2334643 |    3327   315553 22063094 |   104812    74455     52 |        0 |     16055     90305 |
|   3470862 |    3327   329498 22280283 |   127611   112473     56 |        0 |     18916    104250 |
|   5201191 |    3308   238284 17717366 |   155603   145194     68 |        0 |     26846    151168 |
=====================================================================================================
Number of solutions   : 0
Canonical subgraphs   : 26984          (27 /sec)
          order  3    : 1              (200000 /sec)
          order  4    : 1              (500000 /sec)
          order  5    : 1              (250000 /sec)
          order  6    : 1              (55556 /sec)
          order  7    : 1              (8772 /sec)
          order  8    : 2              (1361 /sec)
          order  9    : 7              (352 /sec)
          order 10    : 30             (109 /sec)
          order 11    : 159            (36 /sec)
          order 12    : 1198           (21 /sec)
          order 13    : 5065           (20 /sec)
          order 14    : 14055          (31 /sec)
          order 15    : 6429           (30 /sec)
          order 16    : 32             (21 /sec)
          order 17    : 2              (22 /sec)
          order 18    : 0              (-nan /sec)
          order 19    : 0              (-nan /sec)
          order 20    : 0              (-nan /sec)
          order 21    : 0              (-nan /sec)
Noncanonical subgraphs: 151497         (1003 /sec)
          order  3    : 0              (-nan /sec)
          order  4    : 0              (-nan /sec)
          order  5    : 0              (-nan /sec)
          order  6    : 0              (-nan /sec)
          order  7    : 0              (-nan /sec)
          order  8    : 0              (-nan /sec)
          order  9    : 0              (-nan /sec)
          order 10    : 0              (-nan /sec)
          order 11    : 0              (-nan /sec)
          order 12    : 0              (-nan /sec)
          order 13    : 24752          (2805 /sec)
          order 14    : 112720         (940 /sec)
          order 15    : 11771          (1291 /sec)
          order 16    : 2252           (171 /sec)
          order 17    : 1              (486 /sec)
          order 18    : 1              (183 /sec)
          order 19    : 0              (-nan /sec)
          order 20    : 0              (-nan /sec)
Canonicity checking   : 981.585 s
Noncanonicity checking: 151.059 s
Total canonicity time : 1132.64 s
database reductions   : 129
restarts              : 8191
conflicts             : 5250134        (1947 /sec)
decisions             : 6637806        (0.00 % random) (2461 /sec)
propagations          : 254574528      (94399 /sec)
conflict literals     : 526174826      (54.95 % deleted)
actual reward         : 0.243186
Memory used           : 378.00 MB
CPU time              : 2696.8 s

UNSATISFIABLE
